# Solution for model GasLib-40
# Objective value = 7.8618800896251912e+01
loadshed[innode_1] 0
loadshed[innode_2] 0
loadshed[innode_3] 0
loadshed[innode_4] 0
loadshed[innode_5] 0
loadshed[innode_6] 0
loadshed[innode_7] 0
loadshed[innode_8] 0
loadshed[source_1] -4.8441765566062056e-02
loadshed[source_2] 2.7676434642290082e-01
loadshed[source_3] 2.6898061831103637e-01
loadshed[sink_1] 1
loadshed[sink_2] 0
loadshed[sink_3] 0
loadshed[sink_4] 0
loadshed[sink_5] 0
loadshed[sink_6] 0
loadshed[sink_7] 0
loadshed[sink_8] 0
loadshed[sink_9] 0
loadshed[sink_10] 0
loadshed[sink_11] 0
loadshed[sink_12] 1
loadshed[sink_13] 0
loadshed[sink_14] 0
loadshed[sink_15] 0
loadshed[sink_16] 0
loadshed[sink_17] 0
loadshed[sink_18] 3.7440772419978330e-01
loadshed[sink_19] 0
loadshed[sink_20] 0
loadshed[sink_21] 1
loadshed[sink_22] 4.7325362240914237e-01
loadshed[sink_23] 0
loadshed[sink_24] 9.5960291201539483e-01
loadshed[sink_25] 0
loadshed[sink_26] 0
loadshed[sink_27] 0
loadshed[sink_28] 0
loadshed[sink_29] 0
flow[source_1,sink_3] 1.6574844995216250e+02
flow[innode_1,sink_16] 1.6354166666666970e+01
flow[innode_6,sink_13] -1.0878904454806175e+00
flow[sink_13,sink_14] -1.7442057112147285e+01
flow[sink_14,sink_10] -3.3796223778813953e+01
flow[sink_25,sink_26] 0
flow[sink_26,sink_9] 1.6354166666669244e+01
flow[sink_9,sink_18] 0
flow[sink_26,sink_4] -3.2708333333335915e+01
flow[sink_4,sink_20] -7.9484854033581883e+01
flow[sink_18,sink_6] -1.0231040343816046e+01
flow[sink_25,innode_8] -1.3304011661882612e+02
flow[sink_6,sink_7] -3.5199705060666560e+01
flow[sink_6,sink_22] 8.6144980501838191e+00
flow[sink_7,sink_24] 6.6066070974823110e-01
flow[sink_22,sink_1] 0
flow[sink_24,sink_21] 0
flow[sink_21,sink_12] 0
flow[sink_7,sink_5] -5.2214532437081431e+01
flow[sink_5,sink_17] -68.5686991037481
flow[sink_17,sink_4] -3.0422354033579268e+01
flow[sink_17,sink_8] -5.4500511736835463e+01
flow[sink_3,sink_23] 16.3541666666697
flow[sink_8,sink_20] -7.0854678403502135e+01
flow[sink_25,sink_20] 1.6669369910375073e+02
flow[sink_25,sink_15] -4.8919858706111270e+01
flow[sink_15,sink_29] -8.1628192039462192e+01
flow[sink_29,sink_28] 1.6354166666667879e+01
flow[sink_29,sink_2] 0
flow[sink_2,sink_15] -1.6354166666684250e+01
flow[sink_29,innode_7] -1.1433652537279627e+02
flow[innode_4,sink_19] 4.4648043667983224e+01
flow[sink_19,innode_3] 4.0434707457578050e+01
flow[innode_4,innode_5] 7.0919013444164378e+01
flow[sink_27,innode_5] -7.0919013444164378e+01
flow[sink_27,sink_19] 5.4564846777497706e+01
flow[sink_10,sink_11] 3.2708333333333641e+01
flow[sink_10,innode_2] -4.2424016321236188e+01
flow[sink_10,innode_3] -4.0434707457578050e+01
flow[innode_6,sink_25] 1.0878904454806175e+00
flow[sink_11,innode_1] 1.6354166666666970e+01
flow[sink_19,innode_2] 4.2424016321236188e+01
flow[source_3,innode_4] 1.1556705711214761e+02
flow[source_2,innode_7] 1.1433652537279627e+02
flow[sink_3,innode_8] 1.3304011661882612e+02
pressure[innode_1] 7.6810458200039633e+01
pressure[innode_2] 7.9204443987146334e+01
pressure[innode_3] 7.9114905906215540e+01
pressure[innode_4] 81.01325
pressure[innode_5] 8.0964468162981944e+01
pressure[innode_6] 7.5326434172578217e+01
pressure[innode_7] 81.01325
pressure[innode_8] 8.0459216250012830e+01
pressure[source_1] 81.01325
pressure[source_2] 81.01325
pressure[source_3] 81.01325
pressure[sink_1] 1.0132500000000002e+00
pressure[sink_2] 7.5510350406114881e+01
pressure[sink_3] 8.0459216250012830e+01
pressure[sink_4] 2.9755787519398925e+01
pressure[sink_5] 2.3485273008410537e+01
pressure[sink_6] 1.2864492389901823e+00
pressure[sink_7] 1.7696572860751585e+00
pressure[sink_8] 3.0649591359525676e+01
pressure[sink_9] 2.4618326282510456e+01
pressure[sink_10] 7.6962159507643179e+01
pressure[sink_11] 7.6810458200039633e+01
pressure[sink_12] 1.01325
pressure[sink_13] 7.5332431530800775e+01
pressure[sink_14] 7.5363645577737714e+01
pressure[sink_15] 7.5563743155881326e+01
pressure[sink_16] 7.5788808365221954e+01
pressure[sink_17] 2.8593145462847090e+01
pressure[sink_18] 1.01325
pressure[sink_19] 7.9204443987146334e+01
pressure[sink_20] 3.5587165995702819e+01
pressure[sink_21] 1.01325
pressure[sink_22] 1.01325
pressure[sink_23] 8.0294498238353043e+01
pressure[sink_24] 1.01325
pressure[sink_25] 7.5326434172578217e+01
pressure[sink_26] 2.5597165366452877e+01
pressure[sink_27] 8.0375971395641812e+01
pressure[sink_28] 7.7659913585484063e+01
pressure[sink_29] 7.7955195859101238e+01
interdiction[source_1,sink_3] 0
interdiction[innode_1,sink_16] 0
interdiction[innode_6,sink_13] 0
interdiction[sink_13,sink_14] 0
interdiction[sink_14,sink_10] 0
interdiction[sink_25,sink_26] 1
interdiction[sink_26,sink_9] 0
interdiction[sink_9,sink_18] 1
interdiction[sink_26,sink_4] 0
interdiction[sink_4,sink_20] 0
interdiction[sink_18,sink_6] 0
interdiction[sink_25,innode_8] 0
interdiction[sink_6,sink_7] 0
interdiction[sink_6,sink_22] 0
interdiction[sink_7,sink_24] 0
interdiction[sink_22,sink_1] 0
interdiction[sink_24,sink_21] 0
interdiction[sink_21,sink_12] 0
interdiction[sink_7,sink_5] 0
interdiction[sink_5,sink_17] 0
interdiction[sink_17,sink_4] 0
interdiction[sink_17,sink_8] 0
interdiction[sink_3,sink_23] 0
interdiction[sink_8,sink_20] 0
interdiction[sink_25,sink_20] 0
interdiction[sink_25,sink_15] 0
interdiction[sink_15,sink_29] 0
interdiction[sink_29,sink_28] 0
interdiction[sink_29,sink_2] 1
interdiction[sink_2,sink_15] 0
interdiction[sink_29,innode_7] 0
interdiction[innode_4,sink_19] 0
interdiction[sink_19,innode_3] 0
interdiction[innode_4,innode_5] 0
interdiction[sink_27,innode_5] 0
interdiction[sink_27,sink_19] 0
interdiction[sink_10,sink_11] 0
interdiction[sink_10,innode_2] 0
interdiction[sink_10,innode_3] 0
interdiction[innode_6,sink_25] 0
interdiction[sink_11,innode_1] 0
interdiction[sink_19,innode_2] 0
interdiction[source_3,innode_4] 0
interdiction[source_2,innode_7] 0
interdiction[sink_3,innode_8] 0
WCcheckFlow[source_1,sink_3] 39
WCcheckFlow[innode_1,sink_16] 1
WCcheckFlow[innode_6,sink_13] 13
WCcheckFlow[sink_13,sink_14] 12
WCcheckFlow[sink_14,sink_10] 11
WCcheckFlow[sink_25,sink_26] 0
WCcheckFlow[sink_26,sink_9] 1
WCcheckFlow[sink_9,sink_18] 0
WCcheckFlow[sink_26,sink_4] -2
WCcheckFlow[sink_4,sink_20] -14
WCcheckFlow[sink_18,sink_6] -1
WCcheckFlow[sink_25,innode_8] -36
WCcheckFlow[sink_6,sink_7] -4
WCcheckFlow[sink_6,sink_22] 2
WCcheckFlow[sink_7,sink_24] 3
WCcheckFlow[sink_22,sink_1] 1
WCcheckFlow[sink_24,sink_21] 2
WCcheckFlow[sink_21,sink_12] 1
WCcheckFlow[sink_7,sink_5] -8
WCcheckFlow[sink_5,sink_17] -9
WCcheckFlow[sink_17,sink_4] -11
WCcheckFlow[sink_17,sink_8] 1
WCcheckFlow[sink_3,sink_23] 1
WCcheckFlow[sink_8,sink_20] 0
WCcheckFlow[sink_25,sink_20] 15
WCcheckFlow[sink_25,sink_15] 6
WCcheckFlow[sink_15,sink_29] 4
WCcheckFlow[sink_29,sink_28] 1
WCcheckFlow[sink_29,sink_2] 0
WCcheckFlow[sink_2,sink_15] -1
WCcheckFlow[sink_29,innode_7] 2
WCcheckFlow[innode_4,sink_19] -4
WCcheckFlow[sink_19,innode_3] -5
WCcheckFlow[innode_4,innode_5] 2
WCcheckFlow[sink_27,innode_5] -1
WCcheckFlow[sink_27,sink_19] 0
WCcheckFlow[sink_10,sink_11] 3
WCcheckFlow[sink_10,innode_2] 1
WCcheckFlow[sink_10,innode_3] 6
WCcheckFlow[innode_6,sink_25] -14
WCcheckFlow[sink_11,innode_1] 2
WCcheckFlow[sink_19,innode_2] 0
WCcheckFlow[source_3,innode_4] -1
WCcheckFlow[source_2,innode_7] -1
WCcheckFlow[sink_3,innode_8] 37
